<?xml version="1.0" encoding="UTF-8"?><osil xmlns="os.optimizationservices.org" xmlns:xsi="http://www.w3.org/2001/XMLSchema-instance" xsi:schemaLocation="os.optimizationservices.org http://www.optimizationservices.org/schemas/2.0/OSiL.xsd"><instanceHeader><name>flay03m</name></instanceHeader><instanceData><variables numberOfVariables="26"><var name="x1" ub="29"/><var name="x2" ub="29"/><var name="x3" ub="29"/><var name="x4" ub="29"/><var name="x5" ub="29"/><var name="x6" ub="29"/><var name="x7" lb="1" ub="40"/><var name="x8" lb="1" ub="50"/><var name="x9" lb="1" ub="60"/><var name="x10" lb="1" ub="40"/><var name="x11" lb="1" ub="50"/><var name="x12" lb="1" ub="60"/><var name="x13" ub="30"/><var name="x14" ub="30"/><var name="b15" type="B" ub="1"/><var name="b16" type="B" ub="1"/><var name="b17" type="B" ub="1"/><var name="b18" type="B" ub="1"/><var name="b19" type="B" ub="1"/><var name="b20" type="B" ub="1"/><var name="b21" type="B" ub="1"/><var name="b22" type="B" ub="1"/><var name="b23" type="B" ub="1"/><var name="b24" type="B" ub="1"/><var name="b25" type="B" ub="1"/><var name="b26" type="B" ub="1"/></variables><objectives><obj maxOrMin="min" name="defObj_objvar" numberOfObjCoef="2"><coef idx="12">2</coef><coef idx="13">2</coef></obj></objectives><constraints numberOfConstraints="24"><con name="e2" lb="0"/><con name="e3" lb="0"/><con name="e4" lb="0"/><con name="e5" lb="0"/><con name="e6" lb="0"/><con name="e7" lb="0"/><con name="e8" ub="0"/><con name="e9" ub="0"/><con name="e10" ub="0"/><con name="e11" ub="69"/><con name="e12" ub="69"/><con name="e13" ub="79"/><con name="e14" ub="79"/><con name="e15" ub="89"/><con name="e16" ub="89"/><con name="e17" ub="69"/><con name="e18" ub="69"/><con name="e19" ub="79"/><con name="e20" ub="79"/><con name="e21" ub="89"/><con name="e22" ub="89"/><con name="e23" lb="1" ub="1"/><con name="e24" lb="1" ub="1"/><con name="e25" lb="1" ub="1"/></constraints><linearConstraintCoefficients numberOfValues="81"><start><el mult="7" incr="3">0</el><el mult="3" incr="1">19</el><el mult="15" incr="4">25</el></start><colIdx><el mult="3" incr="6">0</el><el>1</el><el>7</el><el>12</el><el>2</el><el>8</el><el>12</el><el>3</el><el>9</el><el>13</el><el>4</el><el>10</el><el>13</el><el>5</el><el>11</el><el>13</el><el mult="3" incr="1">6</el><el>0</el><el>1</el><el>6</el><el>14</el><el>0</el><el>2</el><el>6</el><el>15</el><el>1</el><el>2</el><el>7</el><el>16</el><el>0</el><el>1</el><el>7</el><el>17</el><el>0</el><el>2</el><el>8</el><el>18</el><el>1</el><el>2</el><el>8</el><el>19</el><el>3</el><el>4</el><el>9</el><el>20</el><el>3</el><el>5</el><el>9</el><el>21</el><el>4</el><el>5</el><el>10</el><el>22</el><el>3</el><el>4</el><el>10</el><el>23</el><el>3</el><el>5</el><el>11</el><el>24</el><el>4</el><el>5</el><el>11</el><el>25</el><el mult="4" incr="3">14</el><el mult="4" incr="3">15</el><el mult="4" incr="3">16</el></colIdx><value><el mult="2">-1</el><el>1</el><el mult="2">-1</el><el>1</el><el mult="2">-1</el><el>1</el><el mult="2">-1</el><el>1</el><el mult="2">-1</el><el>1</el><el mult="2">-1</el><el>1</el><el mult="3">-1</el><el>1</el><el>-1</el><el>1</el><el>69</el><el>1</el><el>-1</el><el>1</el><el>69</el><el>1</el><el>-1</el><el>1</el><el>79</el><el>-1</el><el mult="2">1</el><el>79</el><el>-1</el><el mult="2">1</el><el>89</el><el>-1</el><el mult="2">1</el><el>89</el><el>1</el><el>-1</el><el>1</el><el>69</el><el>1</el><el>-1</el><el>1</el><el>69</el><el>1</el><el>-1</el><el>1</el><el>79</el><el>-1</el><el mult="2">1</el><el>79</el><el>-1</el><el mult="2">1</el><el>89</el><el>-1</el><el mult="2">1</el><el>89</el><el mult="12">1</el></value></linearConstraintCoefficients><nonlinearExpressions numberOfNonlinearExpressions="3"><nl idx="6"><divide><number value="40"/><variable idx="9"/></divide></nl><nl idx="7"><divide><number value="50"/><variable idx="10"/></divide></nl><nl idx="8"><divide><number value="60"/><variable idx="11"/></divide></nl></nonlinearExpressions></instanceData></osil>